462 1507
442 379
966 1543
507 371
681 537
452 220
199 1542
1240 1591
415 591
704 951
896 414
1131 929
1273 622
1360 1272
425 880
1405 904
1482 1375
1597 423
278 241
515 1282
26 585
11 251
49 1155
607 1568
538 486
